r_100_25_3
100
 94   0   0  53   0   0   0   0   0   0   0  71   0   0   0   0   0   0  14   0   4  16   0  79  27   0   0   0  99   0   9  54   0  87   0   9   0  75   0   4   0   0  33   0   0   0   0   0   0   0  71   0   0   0   0   0   0   0  62  53   0   0   0   0   0   0   0   0   0   0   0  25   0   7   0   0   0   0   1   0   0   0  70   0   0   0   0   0   0   0   0   0   0   0   0  52   0   0   2   4 
  0   2  51   0  30   3  43   0   0   0   0   0   0   0   0   0  76   0   0   0   0   6  93   0  68   0   0   0   0   0   0   0  81   0   0   0   0   0   0  96  79   0   0   0   0   0   0   0  34  95   0   0   0   0   0   0   0   0   0   0   0   0   0   0   0  67   0   0   0   0   0  80   0   0  66   0   0   0  19   0   0  81   0  56  84  50   0  58  35   0   0   0   0   0  73   0   0   0   1 
 36   2   0   0   0   0   0  16   0   0   0  66   0   5   0   0   0   0   0   0   0   0   0   0  88   0   0   0   0   7   0   0   0   0   0  65  39   0   0  13   0   0   0   0   0   0   0  80   0   0   0   0  55   0   0   0   0   0   0   0   0   0   0   0   0   0   0   0  86   6   0  93   0  74   0   0   0   0  26   0  37   0   0   0   0   0   0   0   0   0  38   0   0   0   0   0   0   8 
  0  55  71   0   0  86   0   0   0   0   0   0   0   4   0  77  87   0   0   0   0   0   0   0   0  18  12   0  91   0   0   0  58   0   0   0  50   0   0  11   0   0   0   0   0  13   0   0  71   0   0   0   0   0   0   0   0   0   0   0   0  17   0   0   0   0   0   0   0  46   0   0   0  59   0  31   0  89   0   0   0  25  70   0   0  33   0   0   0   0  87  59   0   0   0   0   0 
 59   0   0   0   0   0  78   0   0   0   0   0   0   0   0   0   0   0   0  33   0   0   0   0  41   0   0  97  73   0   0   0   0   0   0  42  80   0   0  80  39   0   0   0   0  79  10   0   0   0   0   0   5   0   0  60   0   0   0  20   0  93   0   0   0   0   0  99   0   0   0  11   0   0  34   0  74  90  51   0   0  68   0  40   0   0  93   0   0   0   0   0   0   0   0   0 
 39   0   0   0   0  45   0   0  51   0   0   0   0   0  12   0   0   0   0   6   0   0  24  19  49   0   0  90   0  55  37   0   0   0  47   4   0   0  26   0   0   0   0  90   0   0   0   0   0   0  26   0   0   0   0   0  62  36   0   0  86   0   0  12   0  79   0   0   0   0   0   0  88  68   0   0  60   0  68  48   0   0   0   0   0   0   0  50   0   0   0   0   0   0   0 
  0  97   0   0  55   0   0   0   0   0  90   0   0  18   0  30   0   0   0   0   0  92  36   0   0   0  81  76   0  36  33   0   0   0   0   0   0   0   0   0  35   0   0   0   0  57   0   0  57   0   0  80   0  53   0   0  76   0   0   0   0   0   0   0   0   0   0   0   0   6   0   0   0   0   0   0  26   0   0   0   0   0   0   0   0  37   0   0   0   0   0   0  82   0 
  0   0   0   0   0   0  15   0  98   0   0   0   1   0   0  21  19   0  52   0  35   0   0   0  90   0   0   0   0   0   0   0   0   0   7   0   0   0  72   0   0   0  49   0  95   0  71  14   0   0   0   0   0   0   0  57   0   0   0   0   0   0   0  98   0   0   0   0  22   0   0   0   0   0  72   0  14   0   0  84  99  92   0   0   0   0   0  40   0   0  10   0   0 
 92  10   0   0   0   0  13   0   0   0  59   0   0   0   0  41   0   0   0   0   0   0   0   0   0   0   0   0   0   0   0   0   0  46   0   0   0   0  60   0   0   0   0  15   0   0   0   0   0   0   0   0   0   0  45   0   0  38   0   0   0  63  48   0   0   0   0   0   0   0   0   0   0   0   0   0   0   0   0   7  41   0   0  65   0   0   0   0  15   0   0   0 
  0  96   0   0   0  86   0   0  12  70   0   0   0   0   0   0   0   0   0   0   0   0   0   0   0   0   0   0   0  43  62   0   0  95   0   0  94   0   0   0  98  58  40   0   0   0   0  36   0   0   0  41   0   0   0   0   0   0  53   0   0   0   0   9   0   0   1   0   0  28   0   0   0   0   0   0   0  47  69   0  83   0  84   0  24   0  77  64   0 100   0 
  0  63   0   0   0  51  16   0   0   0   0   0   0  58  29   0  99  92   0   0   0   0   0   0   0   0   0   7  11   0   0   0   0  60   0  28   0   0   0   0   0   0   0   0   0   0   0  28   0   0   0  83   0   0   0   0   0   0   0   0   0   0  47   0   0   0   0   0   0   0   0   0   0   0   0  94   0  62   0  72   0  88   6   0  69  15   0   0   0   0 
  0   0   0   0  69   0   0   0   0  42  90   2   0   0   0   0   0   0   0  59  40   7   0   0  88   0   0   0   0  46   0  96   0   0   0   0  67  81   0  49   0   0   0   0   0   0  41   0   0   0   0   0   0  10   0   0  12   0   0   6   0   0  10   0   0   0  93   0   0  96  26   0  33   0  31   0   0   0   0   0   0  52   0   0   4   0   0   0   0 
  0  24   0   0   0   0  41   0  56   0   0   0   0   0   0   0   0   0   0   0   0   0   0   0  54   0   0  48   0   0   0   0   0  24   0  42  92   0  24   0   0   0   0   0  98   0  27   0   0   0  71   0   0   0   0   0   0   0   0  30  29   0   0   0   0   0   0  62  74   0   0   0   0   0   0  36   0  88   0   0   0   0   0   0   0   0  65  41 
  0  43   0   0   0  20   0   0  91   0   0  88   0   0  53   0   0   0   0   0   0   0  59   0   0   0   0   6   0   0   0   0  54  87   0   0   0  27   0   0   0   0   0   0  44   0   0   0   0   0  97  39   0  68   0  18   0   0  95   0  34   0   0  75   0   0   0   0   0   0  66   0   0   0   0   0   0   0   0   0  23   0   0   0   0   4   0 
  0   0   0   0   0   3   0   0   0   0   0   0  61  17   0   0  59   0   0  59   0   0   0   0   0   0   0   0   0   0   0   0   0   0   0   0   0   0   0  18   0   0   0  95   0  43   0   0  83   0   0   0   0  26   0   0  43   0  93   0  40   0   8   0   0   0   0   0 100   0   0  67   0   0   0   0   0   0   0   0   0   0  59   0   0   0 
  0   0   0 100   0   0   0  96   0   0   0   0   0   0   0   0   0   0   0  65   0   0   0   0   0   0   0   0   0   0   0   0   0   0   0   0   0   0  81  25   0  72   0   0   0  65   0   0   0   0   0  42   0   0   0   0  92  79   0   0   0   0  32   0   0  44   0  67   0   0   0  96   0  74   0   0   0   0   0   0   0   0   0   0   0 
  0   0  60  27  31   0   0  53   0   0   0   0  13   0  75  30   0   9   0  67   0   0   0   0   0   0   0   0   0  11   0   0   0   0  61   0   0   0   0   0   0  57  20  67   0   0   0   0   0   0   0   0   0  29  59   7   0   0   0   0   0  81   0   0  70   0   0  38   0   0   0   0   0   0   0   0   0   0   0   0   0   0   0   0 
  0   0  96   7   0   0  51   0   0   0   0   0  39  74   0   0  42   0   0   0   0  57   0   0   0   0  54   0  16  10   0   0   0  62  88   0   0  95   0   0   0   0   0   0   0   0   5   0   9   0   0   0  99  61   0   0   0  32   0   0   0   0  77   0  93   0  74   0   0   0  92  62  83  96  23  46   0  20   0  53   0   0   0 
  0   0   0  93  13   0   0   0   0   0   0   0   0   0   0   0   0   0  39   0   0   0   0   0   0   0   0   0  30   0  59   0   0   0   0   0   0   0   0   0   0  10  33  57   0   0  45   0  38   0   0   0   0   0   0   0  33   0  61   9   0   0   0   0  48   0   0   0   0   0   0   0  93   0  70   0   0   0   0   0  73   0 
  0  42  25   0  31   0   0  12   0   0   0   0   0   0   0  36   0  11   0   0   0  78   0   0   0   0  20   0   0   0   0  35   0   0   0   0   0   0   0   0  92   0   0   0   0   0   0   0  48   0   0   0   0   9   0   0   0   0   0  78   0   0  32  72  42   8   0   0   0  35   0   0   0  74   0   0  48   0   0   0   0 
 86   0   0  69 100   0   0  32   0   0   0  22  79   0   0   0   0   0  48   0  83  94   0   0   0   0   0   0   0   0   0   0   0   0  34  11   0   0   0   0   0  20   0  65   0  60   0   8  17  21   0  85  18   0   0   0   0   0   0   0   0   0   0   0   0   0   0   0   0   0   0   0   0  68  75   0   0   0   0   9 
  0   0   0   0   0   0  15   0   0   0   0   0   0  46   0   0   8  10   0   0  44   0  21  58  57   0   0  23  37   0   0   0   0  46   0   0   0   0   0   0   0   0  28   0   0   0   0   0  92   0   0   0   0   5  23   0   0   0   0   0  81  34   0   0   0   0   0  58   0  90   0   0  23  56   0   0   0   0   0 
 46   0   0   0   0   0   0   0   0   0  36   0  47   0   0   0   0   0  35   0   0   0   0   0   0   0   2   0   0  50   0   0   0   0   0   0   0   0  54  35  31   0   0   0  25  95  48   0  14   0  34  95   0  41   0   0   0   0  20   0  82  51   0   0   0   0   0   0   0  45   0   0   0  63   0   1  65   0 
  0  19   0  52   0   0   0  28   0   0   0   0  66   0  64   0   0  50   0   0   0   0  62   0   0  10   0   0   0  68   0  56   0   0   0   0   0   0   0  72   0   0   0   0   0   0  74   0   0   0   0   0  15   0   0   0   0   0   0   0   0   0   0   0   0   0   0   0   0  78   0   0   0   0   0   0   0 
 68  73   0  51   0   0   0  17   0  72   0  98   0   0   0   0  18   0   0   0   0  68   0   0   0   0  35   0   0  65   0   0   0  78   2  92   0   0   0   0   0  25   0   0   0   0   0   0  57   0   0   0   0   0  47   0   0   0   0   1  12   0   0   0  49   0   0  62   0   0   0   0   0   0   0   0 
  0   0   0   0   0   0   0   0  44  49   0   0  97   0   0  22   9   0   0  51   0   0   0  89   0   0   0   0   6   0   0  29  10  18   0  44   0  82   0   0   0   0   0   0   0   0   0   0   9   0   0   0   0  79  74   0  84   0  86  84  62  29   0   8   0  59  94   0   0  12   4   0  94   0   0 
  0   0  31   6   0   0   0   0   0   4  91  55   0  39  18   0   0   0   0   0   0   0   0  16   0   0   1   0  29   0   0   0   0  64  39  32   0   0  90   0   0  11   0   0  26  60   0   0   0   0   0   0   0   0   0   0   0   0   0   0   0  73  94  87   0   0   0   0  25   0   0   0   0  85 
  0   0   0   0   0  76  65  81   0  95  60   0   0   0   0   8   0   0   0   0  34   0   0   0   0   0   0  29   0   0   0   0  84   0  11   0   0  92   0  32   0   0   0   0   0   0   0   0   0   0  27   0   0   0  56   0   0   0   0   0   0   0  20   0 100  71   0   0  77   0   0   0   0 
  0  46   0  82   0   0   0   0   0   0   0   0   0   0   0   7   0   0   0   0   0  94   0   0   0   0   0   0  58   0   0   0   0   0  40  21   0   0   0  36   0  94   0   0   0   0   0   0   0   0  75  45   0   0   0   0   0   0   0   0  56   0  56   0   0   0   0   0  68   0   0   0 
  0   0   0  58   4   0   0   0   0   2  67   0   0   0   0   0   0   0  17   0   0  23   0   0   0   0   0   0   0   0   0   0   0  66   0   0   6   0   0  44   0   0  46   0   0   0   0  66  96  16   0   0   0  35   0   0   0   0   0   0  14   0   0   0  74   0   0  61  15   0   0 
  0   0   0   0   0   7   0   0   0   0   0   0   0   0   0   1   0   0   0   0  26   0   0   0   0   0   0   0   0   0   0   0   0   0   0   0   0  80   0   0   0   0   0   0   0   0   0   0   0  52   0   0  25   0   0   0   0   0   0   0   0   0   0   0  42   0   0  61   0  22 
  0   0   0   0   0   0   0   0   0   0   0   0   0   0   0   0  85  28  51  66   0   0   0  90   0   2   0   0   0  31   0   0   0   0   0   0   0   0   0   0   0   0   0   5   0  89   0   0   0   0  80   0  71   0   0   0   0   4   0   0   0   0   0   0  27  28   0   0  65 
  0   0   0   0   0  63   0   7   0   0   0   0   0  28   0   0  11   0   0   0   0   0   0   0   0   0   0   0  97   0   0   0   0  16   0   0  90   0   0   0   0   0  74   0  69   0   0   0   0   0   0   0   0   0   0  30   0  16   0   0  48   0   0   0   0  83  40   0 
  0   0   0   0   0  30   0   0   0   0  48   0  38  78   0   0  71  39   0   0   0   0   0  64   0  26   0   0   0  92   0   0   0   0   0  84   0   0   0   0   0  85   0   0   0   0   0   0   0  82  55   0  56   0   0   0   0   0  12   0   0  35  69   0   0  19   6 
  0   0   0   0   0  32  74   0   0   0  59   0   0  75   0   0  36  54   0   0   0   2  18   0   0  33   0   0   0   0   0   0   0  26  71   0   0  85   0   0   0   0   0   0   0   0   0   0  63   0   0   0   0   0  35   6   0   0   0   0   0  60   0  21   0  94 
  0   0   0   0  88   0  93   0   0   0   0   2  52   8   0   0   0  41   0   0   0   0   0  74   0  57  98   0  23   0   0   0   0   0   0   0   0   0   0   0  34  14   0   0   0   0  82   0   0   0   0   0   0   4  60   0  98   0  44   0   0  77   0   0   0 
 45   0   0  55   0   0   0   0   0   0   0   0   0   0   0  98  75   0   0   0   0   0   0   0   0   0   0   0   0   0  10   0   0   0  13   0  11   0   0   0   0   0  28   0   0  76  68   0   0  14   0   0   0   0   0  78   0   0   0   0   0   1   0  62 
  0   0  45  69  36  77   0   0   0   0   0   0   0   0   0  47   0   0   0   0   0   0   0  29   0   0   0   0   0  32   0  57   0   0   0  49   0   0   0   0   0  91   0  91   0   0  82   0   0   0   0   0   0  51   0   0   0   0   0   0   0   0   0 
 85  89   0   0  96   0   0   0   0  21  41  35   0   0   0  27   0   0   0   0  85   0   0   0   0   0   0   0   0   0   0   0   0   0   0   0  25   0   0   0   0   0   0  75   0   0   0   0   0   0  35   0   0   0   0   0   0  73   0   0   0   0 
 83   0   0   0   0  48   2   0  34   0   0   0   0   0   0  72   0   0   0  41  45   0   0   0   0   0   0  44   3   0  79  51   0   0   0   9   0   0   0   0  65   0  57   0   0   0   0   0   0  91   0  69   0   0   0   0   0   0  58   0   0 
  0  83   0   0   0   0  66   0   6   0   0   0  52   0   0   0  12  47   0   0  10   0   0   0   0   8  26  59  23  60  35   0  71   0   0   0   0   0  37   0   0  71   0   0   0   0  64  34   0   0   0   5   0   0   0   0   0  23   0  52 
  0   0   0   0   0  67  31   0   1   4   0   0   0   0   0   0   0   0   0   0   0   0   0  30   0  59   0   0   0   3   0   0   0   0   0   0   0   0   0   0   0   0   0   0   0  96   0  44  91  50  99  35   0   0  95   0   0  26  53 
  0   0   0   0   0   0   0  64   0   0   0   0   0  73   0   8   0   0   0   0   0   0  15   0  83   0  72  16   0   0   0   0   0  88   5   0   0   0   0   0   0  52   0   0   0  18   0   0  89   0  96   0   0   0   0   0   0   0 
  0   0   0  99   0   0   0   0   0   0  61   0   0   0   0   0   0   0   0   0  58   0  33  14  29   0   0   0  85   0   0   0  64   0   0  13  58   0  29   0   0  88   0  29   0   0   0   0   9   0  17  41   0  64   0   0   0 
  0   0   0   0   0   0   0   0  15  86   0   0  21   0   0   0   0   0  40   0  82  89   0   0  21   0   3  58   0   0   0   0  35   1   0   0   0   0   0  35  36   0   0   0   0   0   0   0   0  94  91   0  20   0   0   0 
 11   0   0   0   0  24   0   0   0   0  99   0   0   0   0   0   0   0  78   0   0   0   0   0   0   0   0   0   0   0   0   0  99  82   0   0  84   0   0   0   0   0   0   0   0   0   0   0   0   0   0  79   0   0   0 
  0  36   0   0   0   8   0  80   0   0   0   0   0   0   0   0  94  67   0   0   0  78   0  43   0   0   0   5  87   0   0  44  66   0  29   0   0   0   0   0   0   0   0   0   0  13  30  28   0   0   0   0   0   0 
  0   0   0   0   0   0   0   0   0   0   0   0   0   0   0   0   0  93   0  29   0   0   0   0  19   0   0  41  81   0   0   0   0  16  99   0   0   2   0  71   0  95  49  30   0   0   0  31   0  66   0  97   0 
  0  47  13   0   0   0   0   0   0   0   0   0   0   0   0  88   0   0   0   0   0  48  96   0   0  20  41   0   0  20   0   0   0  36   9   0   0   0   0   0  20   0   0   0   0   0   0   0  26   0   0   0 
  0  25   0  83   0   0   0   0  22  47   0  63   0   0   0   0  19   0  10   0   0   0   0  34   0   0   0   0  78   0   0   0   0   0   0   0   0   0   8   0   0   0   0   0   0   0   0   0   0   0   0 
  0   0   0   0   0   0   0  90  47   0   0   0   0   0   0   0   0   0   0   0   0  25   0   0   0   0   0   0   8  43   0  70   0   0   0  23   0  63   8  72  40   0   0  95   0   0   0   0  23  32 
  0   0   0   0   0   0  22  60   0   0  65   0  19  64   0   0   0   0  84  90  71  69   0   0   0   0   0   0   0   0   0   0   0   0  99  54   0   0   0   0   0   0   0   0   0   0  18   0  51 
  0   4   0   0  10  73  33   0   0   0   0   0   0   0   0   0   0   0   0   0   0   0   0   0   0   0   0   0  14   0   0   0   0  52   0   0   0   0   7   0  21   0   0  47   0   0  14   0 
  0   0   7  85   0   0  52   0  64  42  52   0   0   4   0   0   0   0   0   0   0  86   0   0   0   0  22   0   0   0   0 100   0   0   0  12  83   0   4   0   0   0   0   0   0   0   0 
  2   0  24   7  37   0   0   0  42   0  65   0   0  82   0   0   0   0  10  44   0  85   0  80   0   0   0   0   0   0   0   0   0   0   7  34  78  61   0   0   0   0   0   0   0   0 
  0   0   0   0   0   0   0   0   0   0   0   0   0   0   0   0  83  89   0  81  24   0   0  45   0   0  32  48   0   0  32   0   0   0   0   0   1   0   0   0   0  24   0   7  66 
  0  79   0  72   0   0   0   0   0   0   0  22  11   0   0   0  52  76   0   0  57   0   0   0   0   0  29   0   0   0   0   0   0  75   0  67   0   0  92   0   0   0   0   0 
  0   0  33   0   0   0   0   0   0  39   0   0  89  34   0   0  83  79   0   0   0   0   0  82   9  75   0   0   0  80   0  88   0   0   0   3   0   0   0   0  97  36  53 
  0   0  21   0   0   0   0   0   0   0   0   0   0   0   0   0   0  23   0  67   0  52  16   0   0   0   0  92   0   0  28   0  26   4  63   0   0  66   0  82   0   0 
  0  15  39   0   0  63   0  78  18   0   0   0   0  20   0  37  65   0   0  17   0   0  93   0   0  79   0   0   0   0  89   0   0  93   0   0   0  43   0   0   0 
  0   0   0  27   0  90   0   0   0   0   0   0  32   0   0   0  56   0   0   0   0  10   0   0  82  92   0  16   0   0   0   0   0   0   0  10  48   0   0  45 
  0   7   0   0   0   0  19   0   0   0   0   0  93   0   0   0  47  14   1   0   0   0  53   0  25   0   0   0   0   0   0   7   0  68   0   0   0  20   0 
 64   0   0   0   0  71   0   0   0   0  20  56   0   0   0  36   0  19   0   0   0   0   0   0   0   0   0   0  38  80   0   0   0   0   6  79   0   0 
 59   0   0  63   0   0   0  97   0   0  40   0   0   0  45  53   0   5   0   0   8   0   0   0   0  77   0   0  40   0   0   0   0   0   0   0   0 
  0   0  85  59   0   0   0  25   0   0   0   0   0   0   9   0   0   0   0   0   0   0   0  71   0   0   0  28   0   0   0   0   0  44   0   0 
  0   0   0  84   0  16  61   0   0   0   0   0  97  69   0   0   0   0   0   0  97  64  40   0   0  46   0  78   0   0   0   0   0   0  16 
  0   0   0   0   0  72  99   0   0   0   0   0   0  21  45  36   0   0   0  26   0   0   0   0   0   0  33   0  34  55  27   0   0   0 
  0   0   0  31   0  75   0   0  70   0  80   0  12   0   0   0   0  61   0  79   0   0   0   0   0   0   0   0   0  61   0   0   0 
 44   0  20   0   0  29   0   0   0  33   0   0  27   0   0   0   0   0   0   0   0   0   0   0   0  14   0  88  73   0   0  55 
  0   0  76   0  31   0   0   0   0   0   0   0   0   0   0  46   0   0   0   0   0   0  36   0   0   0   0   0   0   2   0 
  0  60   0  13   0   0   4  11  39  46   0   0   0   0   0   0  63   0  46   0  40   0  84  43   0   0   0   0  74   0 
  0   0   0   0   0   0  49   0   0   0   7   0  80  29   0   0   7  76   0   0   0   0   0   0  19   0  25   0   0 
  0   5  73   0   0   0  88   0   0  67   0   0   0   0   0   0   0   0   0   0   0   0   0  11   0  94   0  29 
  0   0   0   0  26   0   0  85   0   0  14   5  68   0   0  42  49  41   0  51   0   0   0   0  40   0   0 
  0   0  79  94  88   0   0  88   0  68   0   0  93   0   0   0   0  82   0   0   0  53   0   0   0   0 
  0   0   0   0   0   0   0 100   0   0  12  79   0   0   0   0   0   0   0   0  89  83  94  52   0 
  0   0   0   0   0   0   0   0   0  64  66   0   0   0   0   0   0   0   0   0   0   0   0  60 
  0  89   0   0   0   0   0  47   0  67  95   0   0  77   0   0   0  58   0   8   0   0   0 
  0   0   0   0  72   0  86   0   0  35   0   0  34   0  55   0   0   0   0   0   0   0 
  0   0   0   0   0   0   0   0   0   0   0   0   0   0  68  20  68   0   0   0   0 
  0   0   0   0   0  28   0  17   0   1   0   0   0  54  18   0   0   0   0   0 
  0   0  17  27  80  31   0   0  15   0  42   0   0   0   0   0   0   0   0 
  0   0  81  44  83   0  74  54   0   9   0   0   0   0   0   0   0   2 
  0   0   0   0   0   0  40   0   0  11  91   0   0   0   0   0  91 
  0   0   0   0  49   0   0   0   0   0   0   0   0   0  45   0 
  0   0   0   0   0  43   0   0   0   0  42  88  46  94  43 
  0   0   0   0  81  34   0   0   0   0  42   0  74   0 
  0   0   0   0   0   0   0   0  67  83  32   0   0 
 11  39   0   0   0  27   0   0   0  63   0   0 
  0   0   0  75  14  98   0  90   0   0   0 
  0  35   0   0  40   0   0   0   0   0 
  0  82   0   0   0   0   0   0  51 
 34   0   0   0   0   3   0   0 
  0   0   0   0   0  20   0 
  0   0   0   0   0  36 
  0  13   0   0   0 
  0  49   0   0 
 26   0   0 
  0   0 
  0 

0
156
 21  12  31  30  25   6  23  27  44  36  18  41  34  19  32  43  21  33  48  41  35  27  22  26  49  31  12  34  12   5  24   7  26   7  41  12  10  45  16   8  44  41  33  19  47   8  10  17   4  28   6  48  31  19  32  12   6  41  20  39  16  12  43  44  11   1  27   1   7  35  22  40  39  24  37  33  17   9  19   2  22  33  29  48  45  40  48  31   5  15  48   2  43  12  14   4   5  18  29  19 

Comments

Density             : 25.00 %

